p cnf 33 48
-16 9 0 
-3 18 0 
-25 4 6 9 0 
-24 8 0 
-12 33 0 
-5 27 0 
-18 3 6 0 
-6 25 0 
-19 3 0 
-30 11 0 
-28 2 0 
-9 25 0 
-8 24 0 
-29 3 0 
-31 8 11 0 
-9 16 0 
-6 18 0 
-23 1 0 
-11 26 0 
-4 15 0 
-11 31 0 
-8 31 0 
-3 19 0 
-2 28 0 
-26 11 0 
-4 27 0 
-8 20 0 
-7 17 0 
-9 32 0 
-15 4 13 0 
-1 20 0 
-8 14 0 
-1 23 0 
-33 12 0 
-2 17 0 
-4 21 0 
-17 2 7 0 
-4 25 0 
-21 4 0 
-3 29 0 
-22 10 0 
-27 4 5 0 
-32 9 0 
-20 1 8 0 
-13 15 0 
-10 22 0 
-11 30 0 
-14 8 0 
